(declare-fun var0 () String)
(assert (str.in.re var0 (re.++ (re.+ (re.* (re.union (re.union (re.+ (re.+ (re.+ (re.+ (re.+ (re.+ (re.union (str.to.re "MM") (str.to.re "NN")))))))) (re.+ (re.* (re.union (re.union (re.union (re.+ (re.union (str.to.re "O") (str.to.re "PP"))) (re.union (re.union (str.to.re "QQQ") (str.to.re "RRR")) (re.* (str.to.re "S")))) (re.+ (re.+ (re.* (str.to.re "TT"))))) (re.+ (re.* (re.+ (re.* (str.to.re "U"))))))))) (re.+ (re.* (re.+ (re.union (re.* (re.+ (re.* (re.+ (str.to.re "V"))))) (re.union (re.* (re.+ (re.* (str.to.re "W")))) (re.union (re.union (re.+ (str.to.re "X")) (re.* (str.to.re "YYY"))) (re.+ (re.* (str.to.re "ZZZ")))))))))))) (re.union (re.* (re.+ (re.+ (re.union (re.* (re.union (re.+ (re.union (re.* (re.* (str.to.re "000"))) (re.union (re.* (str.to.re "11")) (re.union (str.to.re "222") (str.to.re "333"))))) (re.* (re.union (re.+ (re.union (str.to.re "444") (str.to.re "55"))) (re.* (re.+ (str.to.re "666"))))))) (re.* (re.union (re.+ (re.union (re.* (re.* (str.to.re "77"))) (re.+ (re.+ (str.to.re "88"))))) (re.+ (re.* (re.* (re.union (str.to.re "999") (str.to.re "a"))))))))))) (re.union (re.+ (re.union (re.union (re.+ (re.union (re.* (re.union (re.* (re.* (str.to.re "bb"))) (re.union (re.union (str.to.re "cc") (str.to.re "ddd")) (re.* (str.to.re "e"))))) (re.union (re.* (re.* (re.+ (str.to.re "fff")))) (re.+ (re.+ (re.+ (str.to.re "ggg"))))))) (re.* (re.+ (re.* (re.* (re.union (re.union (str.to.re "hhh") (str.to.re "ii")) (re.union (str.to.re "j") (str.to.re "kkk")))))))) (re.union (re.union (re.+ (re.union (re.* (re.* (re.union (str.to.re "lll") (str.to.re "mmm")))) (re.* (re.+ (re.* (str.to.re "n")))))) (re.+ (re.union (re.* (re.union (re.union (str.to.re "oo") (str.to.re "pp")) (re.+ (str.to.re "qq")))) (re.union (re.* (re.+ (str.to.re "r"))) (re.union (re.union (str.to.re "sss") (str.to.re "ttt")) (re.* (str.to.re "uuu"))))))) (re.+ (re.* (re.+ (re.+ (re.+ (re.+ (str.to.re "v")))))))))) (re.union (re.* (re.+ (re.* (re.union (re.+ (re.+ (re.union (re.+ (str.to.re "w")) (re.union (str.to.re "xx") (str.to.re "yyy"))))) (re.+ (re.+ (re.union (re.+ (str.to.re "zz")) (re.union (str.to.re "AA") (str.to.re "BB"))))))))) (re.union (re.* (re.* (re.* (re.+ (re.+ (re.* (re.+ (str.to.re "C")))))))) (re.union (re.+ (re.+ (re.union (re.+ (re.+ (re.+ (str.to.re "DDD")))) (re.* (re.+ (re.union (str.to.re "EEE") (str.to.re "FF"))))))) (re.+ (re.+ (re.union (re.union (re.+ (re.union (str.to.re "GGG") (str.to.re "HHH"))) (re.+ (re.+ (str.to.re "II")))) (re.+ (re.union (re.* (str.to.re "JJJ")) (re.union (str.to.re "KK") (str.to.re "LL")))))))))))))))
(assert (<= 15 (str.len var0)))
(check-sat)